
Gurobi 11.0.0 (win64, C++) logging started Wed Jul 30 01:27:24 2025

Set parameter TokenServer to value "141.76.38.119"
### START HEURISTIC APPROACH APPROACH ###
ProblemVariant: 1
### START PREPROCESSING ###
## Start start solution procedure ##
Start solution with 7 Vehicles and total costs 811.828 in 10.3222 s.
### END PREPROCESSING ###
Route 0 0-29-25-24-1-6-0 : weight util 0.611111 | volume util 0.642422 | infeasible with packing heuristic | feasible with CP model
Route 1 0-7-13-16-15-0 : weight util 0.222222 | volume util 0.520044 | infeasible with packing heuristic | feasible with CP model
Route 2 0-22-26-27-28-0 : weight util 0.144444 | volume util 0.537333 | infeasible with packing heuristic | feasible with CP model
Route 3 0-20-3-4-5-2-0 : weight util 0.850000 | volume util 0.548333 | infeasible with packing heuristic | feasible with CP model
Route 4 0-21-14-8-9-17-0 : weight util 0.555556 | volume util 0.535667 | infeasible with packing heuristic | feasible with CP model
Route 5 0-19-18-0 : weight util 0.122222 | volume util 0.401422 | infeasible with packing heuristic | feasible with CP model
Route 6 0-23-10-11-12-0 : weight util 0.327778 | volume util 0.690867 | infeasible with packing heuristic | feasible with CP model
